
Gurobi 9.1.2 (linux64, gurobi_cl) logging started Fri Jul 30 13:54:09 2021

Using license file /opt/gurobi/gurobi.lic
Set parameter TimeLimit to value 600
Set parameter Cuts to value 2
Set parameter LogFile to value 912-Cuts2-glass4-2.log
Set parameter Seed to value 2

Gurobi Optimizer version 9.1.2 build v9.1.2rc0 (linux64)
Copyright (c) 2021, Gurobi Optimization, LLC

Read MPS format model from file /nfs/models/mip/glass4.mps.bz2
Reading time = 0.00 seconds
glass4: 396 rows, 322 columns, 1815 nonzeros
Thread count: 4 physical cores, 8 logical processors, using up to 8 threads
Optimize a model with 396 rows, 322 columns and 1815 nonzeros
Model fingerprint: 0x0a9d9037
Variable types: 20 continuous, 302 integer (0 binary)
Coefficient statistics:
  Matrix range     [1e+00, 8e+06]
  Objective range  [1e+00, 1e+06]
  Bounds range     [1e+00, 8e+02]
  RHS range        [1e+00, 8e+06]
Presolve removed 6 rows and 6 columns
Presolve time: 0.00s
Presolved: 390 rows, 316 columns, 1803 nonzeros
Variable types: 19 continuous, 297 integer (297 binary)
Found heuristic solution: objective 3.133356e+09

Root relaxation: objective 8.000024e+08, 72 iterations, 0.00 seconds

    Nodes    |    Current Node    |     Objective Bounds      |     Work
 Expl Unexpl |  Obj  Depth IntInf | Incumbent    BestBd   Gap | It/Node Time

     0     0 8.0000e+08    0   72 3.1334e+09 8.0000e+08  74.5%     -    0s
H    0     0                    2.150017e+09 8.0000e+08  62.8%     -    0s
H    0     0                    2.100017e+09 8.0000e+08  61.9%     -    0s
     0     0 8.0000e+08    0   72 2.1000e+09 8.0000e+08  61.9%     -    0s
     0     0 8.0000e+08    0   72 2.1000e+09 8.0000e+08  61.9%     -    0s
H    0     0                    2.100017e+09 8.0000e+08  61.9%     -    0s
H    0     0                    2.100016e+09 8.0000e+08  61.9%     -    0s
     0     2 8.0000e+08    0   72 2.1000e+09 8.0000e+08  61.9%     -    0s
H  177   388                    2.050016e+09 8.0000e+08  61.0%  10.8    0s
H  694   618                    2.000016e+09 8.0000e+08  60.0%   6.9    0s
H  695   611                    1.950016e+09 8.0000e+08  59.0%   7.0    0s
H 1100   894                    1.900016e+09 8.0000e+08  57.9%   8.8    0s
H 1101   851                    1.900015e+09 8.0000e+08  57.9%   8.8    0s
H 1102   808                    1.900015e+09 8.0000e+08  57.9%   8.8    0s
H 1102   767                    1.900015e+09 8.0000e+08  57.9%   8.8    0s
H 1102   729                    1.900014e+09 8.0000e+08  57.9%   8.8    0s
H 1727  1055                    1.875016e+09 8.0001e+08  57.3%  14.3    2s
* 1729  1019              86    1.875016e+09 8.0001e+08  57.3%  14.3    2s
* 1733   985              85    1.866683e+09 8.0001e+08  57.1%  14.3    2s
* 2450  1202              42    1.860021e+09 8.0001e+08  57.0%  17.8    2s
* 2521  1175              63    1.840760e+09 8.0001e+08  56.5%  18.1    2s
H 3194  1576                    1.838908e+09 8.0001e+08  56.5%  20.0    3s
H 3351  1691                    1.812519e+09 8.0001e+08  55.9%  20.5    4s
H 3630  1896                    1.800018e+09 8.0016e+08  55.5%  20.4    4s
* 3632  1896              63    1.800018e+09 8.0016e+08  55.5%  20.4    4s
* 3640  1888              65    1.800017e+09 8.0016e+08  55.5%  20.4    4s
* 3974  2018              78    1.766686e+09 8.0016e+08  54.7%  21.8    4s
* 4599  2498              81    1.766685e+09 8.0759e+08  54.3%  22.2    4s
* 4921  2686              49    1.766684e+09 8.0759e+08  54.3%  22.7    4s
H 5200  2863                    1.750019e+09 8.1104e+08  53.7%  23.0    4s
* 5206  2799              41    1.700019e+09 8.1104e+08  52.3%  23.0    4s
  5282  2919 1.2000e+09   29   85 1.7000e+09 8.1104e+08  52.3%  23.1    5s
* 5414  2909              59    1.700016e+09 8.1104e+08  52.3%  23.2    5s
* 5694  2980              45    1.700014e+09 8.2219e+08  51.6%  23.6    5s
* 7998  4063              70    1.683350e+09 8.5001e+08  49.5%  25.0    6s
* 7999  4063              70    1.683350e+09 8.5001e+08  49.5%  25.0    6s
* 8084  3959              59    1.650017e+09 8.5001e+08  48.5%  25.0    6s
*10953  6019              70    1.650015e+09 9.0001e+08  45.5%  27.3    7s
*11056  5914              64    1.642873e+09 9.0001e+08  45.2%  27.3    7s
*11059  5802              66    1.600016e+09 9.0001e+08  43.8%  27.3    7s
H14807  8152                    1.600015e+09 9.0001e+08  43.8%  26.9    8s
 17882 10060 infeasible   32      1.6000e+09 9.0001e+08  43.8%  26.8   10s
*20483 11418              56    1.600014e+09 9.1441e+08  42.9%  26.0   10s
*20484 11405              56    1.600014e+09 9.1441e+08  42.9%  26.0   10s
*20489 11402              56    1.600014e+09 9.1441e+08  42.9%  26.0   10s
H22893 12088                    1.600013e+09 9.4300e+08  41.1%  26.3   11s
*29264 15393              74    1.600013e+09 1.0000e+09  37.5%  26.3   14s
*29271 13766              78    1.575013e+09 1.0000e+09  36.5%  26.3   14s
*29272 12534              78    1.500013e+09 1.0000e+09  33.3%  26.3   14s
 30588 13264 infeasible   34      1.5000e+09 1.0000e+09  33.3%  26.9   15s
*39572 12155              57    1.433349e+09 1.0000e+09  30.2%  30.2   19s
 39969 12226     cutoff   47      1.4333e+09 1.0000e+09  30.2%  30.3   20s
*43012 12220              48    1.400014e+09 1.0000e+09  28.6%  31.6   21s
H44042 12222                    1.400014e+09 1.0000e+09  28.6%  32.1   22s
*45857 12096              64    1.400013e+09 1.0083e+09  28.0%  33.0   23s
 47936 12020 1.4000e+09   29   47 1.4000e+09 1.0672e+09  23.8%  33.4   25s
*52366 12670              48    1.400013e+09 1.1000e+09  21.4%  35.2   28s
*55632  9563              65    1.375015e+09 1.1000e+09  20.0%  36.0   29s
 55885  9068     cutoff   29      1.3750e+09 1.1000e+09  20.0%  36.0   30s
*56345  9019              50    1.366680e+09 1.1000e+09  19.5%  36.1   30s
*56346  8743              50    1.350013e+09 1.1000e+09  18.5%  36.1   30s
H56967  7821                    1.300014e+09 1.1000e+09  15.4%  36.0   30s
*56971  4176              51    1.200013e+09 1.1000e+09  8.33%  36.0   30s

Cutting planes:
  Gomory: 163
  Cover: 475
  Implied bound: 286
  Projected implied bound: 17
  MIR: 126
  Flow cover: 806
  GUB cover: 1
  Inf proof: 40
  RLT: 94
  Relax-and-lift: 320

Explored 59634 nodes (2097191 simplex iterations) in 30.90 seconds
Thread count was 8 (of 8 available processors)

Solution count 10: 1.20001e+09 1.30001e+09 1.35001e+09 ... 1.43335e+09

Optimal solution found (tolerance 1.00e-04)
Best objective 1.200012600000e+09, best bound 1.200003400000e+09, gap 0.0008%
